(set-logic QF_S)
(declare-fun H () String)
(declare-fun I () String)
(declare-fun K () String)
(declare-fun J () String)
(declare-fun L () String)
(assert (= (str.++  H "aaa" H "aaaaaaaa" H "aaa" H "aaaaaaabaa" I I I "b" I "ab" J J "b" L)  (str.++  "aaaaaaa" H "aaaaaaa" I I "aaaa" I I "aaaab" J J J J "b" J K J K "baabaa") ))
(check-sat)
(get-model)
